instances/tuning-use-case-1/oven_scheduling.minizinc_instance_0112-17.51.20.dzn
l=160;
a=5;
setup_costs=[|2,1,1,1,3,
|2,0,3,2,3,
|2,1,0,3,2,
|3,1,2,1,0,
|0,2,0,3,3,
|0,0,0,0,0|];
setup_times=[|0,3,0,1,1,
|3,1,0,1,0,
|0,2,0,0,3,
|3,2,1,3,3,
|1,0,0,1,0,
|0,0,0,0,0|];
m=2;
min_cap=[0,0];
max_cap=[58,65];

initState=[5,5];
s=4;
m_a_s = [|32,91,120,127,
|0,0,13,36|];
m_a_e = [|88,119,127,159,
|0,0,34,148|];
n=10;
eligible_machine = [{1},
{1,2},
{1,2},
{2},
{1},
{1},
{2},
{2},
{1,2},
{2}];
earliest_start=[13,3,19,4,27,5,11,31,33,18];
latest_end=[24,10,24,5,41,19,30,41,38,24];
min_time=[9,6,5,1,9,8,10,9,3,5];
max_time=[10,10,10,10,10,10,10,10,10,10];
size=[12,6,14,20,11,14,14,20,5,12];
attribute=[5,2,4,4,2,3,1,5,4,5];

upper_bound_integer_objective=22050;
mult_factor_total_runtime=12;
mult_factor_finished_toolate=2100;
mult_factor_total_setuptimes=0;
mult_factor_total_setupcosts=7;
running_time_bound=65;
min_duration=1;
max_duration=10;
max_setup_time=3;
max_setup_cost=3;
